(set-logic QF_LRA)
(declare-fun x1 () Real)
(declare-fun x2 () Real)
(declare-fun x3 () Real)
(declare-fun x4 () Real)
(declare-fun x5 () Real)
(declare-fun x6 () Real)
(declare-fun x7 () Real)
(declare-fun x8 () Real)
(declare-fun x9 () Real)
(declare-fun x10 () Real)

(assert (>= (- 10 ( + ( + x2 (* -5 x1) ) x3 )) 0))
(assert (>= (- 1 ( + ( + (* -3 x2) (* -4 x3) ) (* 4 x4) )) 0))
(assert (>= (- -8 ( + ( + (* 10 x5) (* 10 x2) ) (* -10 x3) )) 0))
(assert (>= (- -4 ( + ( + (* -1 x3) (* -4 x5) ) (* 7 x6) )) 0))
(assert (>= (- -8 ( + ( + (* -8 x3) (* -1 x2) ) (* 5 x7) )) 0))
(assert (>= (- 0 ( + ( + (* 9 x5) (* -1 x6) ) (* -5 x8) )) 0))
(assert (>= (- -1 ( + ( + (* -2 x5) (* -6 x3) ) (* -2 x9) )) 0))
(assert (>= (- -8 ( + ( + (* -3 x3) (* 7 x2) ) (* 5 x10) )) 0))
(assert (>= (- -7 ( + (* 10 x3) (* -3 x4) )) 0))
(assert (>= (- 10 ( + (* -10 x3) (* -8 x2) )) 0))
(assert (>= (- 0 ( + (* 4 x5) (* 6 x8) )) 0))
(assert (>= (- -1 ( + ( + (* -2 x7) (* -4 x2) ) (* -7 x3) )) 0))
(assert (>= (- -2 ( + ( + x2 (* 3 x3) ) x4 )) 0))
(assert (>= (- 2 (* 7 x2)) 0))
(assert (>= (- 8 ( + (* -6 x4) (* 4 x2) )) 0))
(assert (>= (- -4 ( + ( + (* -10 x3) (* -1 x2) ) (* 2 x10) )) 0))
(assert (>= (- 0 ( + (* -4 x2) (* -7 x3) )) 0))
(assert (>= (- -8 (* 5 x2)) 0))
(assert (>= (- 6 (* -9 x3)) 0))
(assert (>= (- 3 ( + ( + (* 7 x5) (* 6 x3) ) (* -7 x9) )) 0))
(check-sat)
(exit)